98
99
Academic license - for non-commercial use only
Optimize a model with 9802 rows, 295736 columns and 240238906 nonzeros
Variable types: 0 continuous, 295736 integer (295736 binary)
Coefficient statistics:
  Matrix range     [1e+00, 1e+00]
  Objective range  [3e+01, 2e+04]
  Bounds range     [1e+00, 1e+00]
  RHS range        [1e+00, 3e+00]
Found heuristic solution: objective 10721
Presolve removed 196 rows and 0 columns (presolve time = 6s) ...
Presolve removed 196 rows and 0 columns (presolve time = 14s) ...
Presolve removed 196 rows and 0 columns (presolve time = 52s) ...
Presolve removed 196 rows and 0 columns (presolve time = 55s) ...
Presolve removed 196 rows and 0 columns (presolve time = 60s) ...
Presolve removed 196 rows and 0 columns (presolve time = 65s) ...
Presolve removed 196 rows and 0 columns (presolve time = 99s) ...
Presolve removed 226 rows and 0 columns (presolve time = 100s) ...
Presolve removed 226 rows and 0 columns (presolve time = 110s) ...
Presolve removed 226 rows and 0 columns (presolve time = 117s) ...
Presolve removed 226 rows and 0 columns (presolve time = 152s) ...
Presolve removed 226 rows and 1491 columns (presolve time = 155s) ...
Presolve removed 226 rows and 1491 columns (presolve time = 185s) ...
Presolve removed 226 rows and 1491 columns (presolve time = 190s) ...
Presolve removed 226 rows and 1491 columns (presolve time = 196s) ...
Presolve removed 226 rows and 1491 columns (presolve time = 206s) ...
Presolve removed 226 rows and 1491 columns (presolve time = 238s) ...
Presolve removed 226 rows and 1491 columns (presolve time = 240s) ...
Presolve removed 226 rows and 1491 columns (presolve time = 273s) ...
Presolve removed 226 rows and 1491 columns (presolve time = 275s) ...
Presolve removed 226 rows and 1491 columns (presolve time = 285s) ...
Presolve removed 226 rows and 1491 columns (presolve time = 285s) ...
Presolve removed 226 rows and 1491 columns (presolve time = 398s) ...
Presolve removed 226 rows and 1491 columns (presolve time = 400s) ...
Presolve removed 226 rows and 1491 columns (presolve time = 405s) ...
Presolve removed 226 rows and 1491 columns (presolve time = 410s) ...
Presolve removed 226 rows and 1491 columns (presolve time = 415s) ...
Presolve removed 226 rows and 1491 columns (presolve time = 420s) ...
Presolve removed 226 rows and 1491 columns (presolve time = 425s) ...
Presolve removed 226 rows and 1491 columns (presolve time = 430s) ...
Presolve removed 226 rows and 1491 columns (presolve time = 435s) ...
Presolve removed 226 rows and 1491 columns (presolve time = 440s) ...
Presolve removed 226 rows and 1491 columns (presolve time = 445s) ...
Presolve removed 226 rows and 1491 columns (presolve time = 450s) ...
Presolve removed 226 rows and 1491 columns (presolve time = 456s) ...
Presolve removed 226 rows and 1491 columns (presolve time = 461s) ...
Presolve removed 226 rows and 1491 columns (presolve time = 465s) ...
Presolve removed 226 rows and 1491 columns (presolve time = 470s) ...
Presolve removed 226 rows and 1491 columns (presolve time = 475s) ...
Presolve removed 226 rows and 1491 columns (presolve time = 481s) ...
Presolve removed 226 rows and 1491 columns (presolve time = 485s) ...
Presolve removed 226 rows and 1491 columns (presolve time = 490s) ...
Presolve removed 226 rows and 1491 columns (presolve time = 495s) ...
Presolve removed 226 rows and 1491 columns (presolve time = 500s) ...
Presolve removed 226 rows and 1491 columns (presolve time = 506s) ...
Presolve removed 226 rows and 1491 columns (presolve time = 510s) ...
Presolve removed 226 rows and 1491 columns (presolve time = 515s) ...
Presolve removed 226 rows and 1491 columns (presolve time = 520s) ...
Presolve removed 226 rows and 1491 columns (presolve time = 525s) ...
Presolve removed 226 rows and 1491 columns (presolve time = 530s) ...
Presolve removed 226 rows and 1491 columns (presolve time = 535s) ...
Presolve removed 226 rows and 1491 columns (presolve time = 541s) ...
Presolve removed 226 rows and 1491 columns (presolve time = 545s) ...
Presolve removed 226 rows and 1491 columns (presolve time = 550s) ...
Presolve removed 226 rows and 1491 columns (presolve time = 555s) ...
Presolve removed 226 rows and 1491 columns (presolve time = 560s) ...
Presolve removed 226 rows and 1491 columns (presolve time = 566s) ...
Presolve removed 226 rows and 1491 columns (presolve time = 571s) ...
Presolve removed 226 rows and 1491 columns (presolve time = 575s) ...
Presolve removed 226 rows and 1491 columns (presolve time = 580s) ...
Presolve removed 226 rows and 1491 columns (presolve time = 585s) ...
Presolve removed 226 rows and 1491 columns (presolve time = 591s) ...
Presolve removed 226 rows and 1491 columns (presolve time = 595s) ...
Presolve removed 226 rows and 1491 columns (presolve time = 600s) ...
Presolve removed 226 rows and 1491 columns (presolve time = 607s) ...
Presolve removed 226 rows and 1491 columns (presolve time = 610s) ...
Presolve removed 226 rows and 1491 columns (presolve time = 615s) ...
Presolve removed 226 rows and 1491 columns (presolve time = 620s) ...
Presolve removed 226 rows and 1491 columns (presolve time = 626s) ...
Presolve removed 226 rows and 1491 columns (presolve time = 630s) ...
Presolve removed 226 rows and 1491 columns (presolve time = 636s) ...
Presolve removed 226 rows and 1491 columns (presolve time = 640s) ...
Presolve removed 226 rows and 1491 columns (presolve time = 645s) ...
Presolve removed 226 rows and 1491 columns (presolve time = 650s) ...
Presolve removed 226 rows and 1491 columns (presolve time = 656s) ...
Presolve removed 226 rows and 1491 columns (presolve time = 660s) ...
Presolve removed 226 rows and 1491 columns (presolve time = 666s) ...
Presolve removed 226 rows and 1491 columns (presolve time = 670s) ...
Presolve removed 226 rows and 1491 columns (presolve time = 675s) ...
Presolve removed 226 rows and 1491 columns (presolve time = 681s) ...
Presolve removed 226 rows and 1491 columns (presolve time = 685s) ...
Presolve removed 226 rows and 1491 columns (presolve time = 690s) ...
Presolve removed 226 rows and 1491 columns (presolve time = 695s) ...
Presolve removed 226 rows and 1491 columns (presolve time = 700s) ...
Presolve removed 226 rows and 1491 columns (presolve time = 705s) ...
Presolve removed 226 rows and 1491 columns (presolve time = 711s) ...
Presolve removed 226 rows and 1491 columns (presolve time = 715s) ...
Presolve removed 226 rows and 1491 columns (presolve time = 721s) ...
Presolve removed 226 rows and 1491 columns (presolve time = 725s) ...
Presolve removed 226 rows and 1491 columns (presolve time = 731s) ...
Presolve removed 226 rows and 1491 columns (presolve time = 735s) ...
Presolve removed 226 rows and 1491 columns (presolve time = 741s) ...
Presolve removed 226 rows and 1491 columns (presolve time = 745s) ...
Presolve removed 226 rows and 1491 columns (presolve time = 751s) ...
Presolve removed 226 rows and 1491 columns (presolve time = 755s) ...
Presolve removed 226 rows and 1491 columns (presolve time = 760s) ...
Presolve removed 226 rows and 1491 columns (presolve time = 765s) ...
Presolve removed 226 rows and 1491 columns (presolve time = 771s) ...
Presolve removed 226 rows and 1491 columns (presolve time = 775s) ...
Presolve removed 226 rows and 1491 columns (presolve time = 780s) ...
Presolve removed 226 rows and 1491 columns (presolve time = 785s) ...
Presolve removed 226 rows and 1491 columns (presolve time = 792s) ...
Presolve removed 226 rows and 1491 columns (presolve time = 796s) ...
Presolve removed 226 rows and 1491 columns (presolve time = 801s) ...
Presolve removed 226 rows and 1491 columns (presolve time = 805s) ...
Presolve removed 226 rows and 1491 columns (presolve time = 810s) ...
Presolve removed 226 rows and 1491 columns (presolve time = 815s) ...
Presolve removed 226 rows and 1491 columns (presolve time = 820s) ...
Presolve removed 226 rows and 1491 columns (presolve time = 825s) ...
Presolve removed 226 rows and 1491 columns (presolve time = 832s) ...
Presolve removed 226 rows and 1491 columns (presolve time = 835s) ...
Presolve removed 226 rows and 1491 columns (presolve time = 840s) ...
Presolve removed 226 rows and 1491 columns (presolve time = 846s) ...
Presolve removed 226 rows and 1491 columns (presolve time = 850s) ...
Presolve removed 226 rows and 1491 columns (presolve time = 855s) ...
Presolve removed 226 rows and 1491 columns (presolve time = 860s) ...
Presolve removed 226 rows and 1491 columns (presolve time = 865s) ...
Presolve removed 226 rows and 1491 columns (presolve time = 871s) ...
Presolve removed 226 rows and 1491 columns (presolve time = 875s) ...
Presolve removed 226 rows and 1491 columns (presolve time = 880s) ...
Presolve removed 226 rows and 1491 columns (presolve time = 886s) ...
Presolve removed 226 rows and 1491 columns (presolve time = 890s) ...
Presolve removed 226 rows and 1491 columns (presolve time = 895s) ...
Presolve removed 226 rows and 1491 columns (presolve time = 900s) ...
Presolve removed 226 rows and 1491 columns (presolve time = 909s) ...
Presolve removed 226 rows and 1491 columns (presolve time = 910s) ...
Presolve removed 226 rows and 1491 columns (presolve time = 916s) ...
Presolve removed 226 rows and 1491 columns (presolve time = 920s) ...
Presolve removed 226 rows and 1491 columns (presolve time = 925s) ...
Presolve removed 226 rows and 1491 columns (presolve time = 930s) ...
Presolve removed 226 rows and 1491 columns (presolve time = 935s) ...
Presolve removed 226 rows and 1491 columns (presolve time = 940s) ...
Presolve removed 226 rows and 1491 columns (presolve time = 946s) ...
Presolve removed 226 rows and 1491 columns (presolve time = 950s) ...
Presolve removed 226 rows and 1491 columns (presolve time = 955s) ...
Presolve removed 226 rows and 1491 columns (presolve time = 960s) ...
Presolve removed 226 rows and 1491 columns (presolve time = 965s) ...
Presolve removed 226 rows and 1491 columns (presolve time = 971s) ...
Presolve removed 226 rows and 1491 columns (presolve time = 977s) ...
Presolve removed 226 rows and 1491 columns (presolve time = 980s) ...
Presolve removed 226 rows and 1491 columns (presolve time = 986s) ...
Presolve removed 226 rows and 1491 columns (presolve time = 990s) ...
Presolve removed 226 rows and 1491 columns (presolve time = 997s) ...
Presolve removed 226 rows and 1491 columns (presolve time = 1000s) ...
Presolve removed 226 rows and 1491 columns (presolve time = 1006s) ...
Presolve removed 226 rows and 1491 columns (presolve time = 1010s) ...
Presolve removed 226 rows and 1491 columns (presolve time = 1018s) ...
Presolve removed 226 rows and 1491 columns (presolve time = 1020s) ...
Presolve removed 226 rows and 1491 columns (presolve time = 1025s) ...
Presolve removed 226 rows and 1491 columns (presolve time = 1031s) ...
Presolve removed 226 rows and 1491 columns (presolve time = 1035s) ...
Presolve removed 226 rows and 1491 columns (presolve time = 1040s) ...
Presolve removed 226 rows and 1491 columns (presolve time = 1045s) ...
Presolve removed 226 rows and 1491 columns (presolve time = 1050s) ...
Presolve removed 226 rows and 1491 columns (presolve time = 1055s) ...
Presolve removed 226 rows and 1491 columns (presolve time = 1060s) ...
Presolve removed 226 rows and 1491 columns (presolve time = 1066s) ...
Presolve removed 226 rows and 1491 columns (presolve time = 1071s) ...
Presolve removed 226 rows and 1491 columns (presolve time = 1075s) ...
Presolve removed 226 rows and 1491 columns (presolve time = 1081s) ...
Presolve removed 226 rows and 1491 columns (presolve time = 1085s) ...
Presolve removed 226 rows and 1491 columns (presolve time = 1091s) ...
Presolve removed 226 rows and 1491 columns (presolve time = 1097s) ...
Presolve removed 226 rows and 1491 columns (presolve time = 1100s) ...
Presolve removed 226 rows and 1491 columns (presolve time = 1105s) ...
Presolve removed 226 rows and 1491 columns (presolve time = 1110s) ...
Presolve removed 226 rows and 1491 columns (presolve time = 1116s) ...
Presolve removed 226 rows and 1491 columns (presolve time = 1120s) ...
Presolve removed 226 rows and 1491 columns (presolve time = 1126s) ...
Presolve removed 226 rows and 1491 columns (presolve time = 1134s) ...
Presolve removed 226 rows and 1491 columns (presolve time = 1135s) ...
Presolve removed 226 rows and 1491 columns (presolve time = 1140s) ...
Presolve removed 226 rows and 1491 columns (presolve time = 1146s) ...
Presolve removed 226 rows and 1491 columns (presolve time = 1150s) ...
Presolve removed 226 rows and 1491 columns (presolve time = 1155s) ...
Presolve removed 226 rows and 1491 columns (presolve time = 1163s) ...
Presolve removed 226 rows and 1491 columns (presolve time = 1165s) ...
Presolve removed 226 rows and 1491 columns (presolve time = 1170s) ...
Presolve removed 226 rows and 1491 columns (presolve time = 1175s) ...
Presolve removed 226 rows and 1491 columns (presolve time = 1182s) ...
Presolve removed 226 rows and 1491 columns (presolve time = 1185s) ...
Presolve removed 226 rows and 1491 columns (presolve time = 1190s) ...
Presolve removed 226 rows and 1491 columns (presolve time = 1196s) ...
Presolve removed 226 rows and 1491 columns (presolve time = 1200s) ...
Presolve removed 226 rows and 1491 columns (presolve time = 1205s) ...
Presolve removed 226 rows and 1491 columns (presolve time = 1211s) ...
Presolve removed 226 rows and 1491 columns (presolve time = 1215s) ...
Presolve removed 226 rows and 1491 columns (presolve time = 1221s) ...
Presolve removed 226 rows and 1491 columns (presolve time = 1226s) ...
Presolve removed 226 rows and 1491 columns (presolve time = 1231s) ...
Presolve removed 226 rows and 1491 columns (presolve time = 1235s) ...
Presolve removed 226 rows and 1491 columns (presolve time = 1240s) ...
Presolve removed 226 rows and 1491 columns (presolve time = 1245s) ...
Presolve removed 226 rows and 1491 columns (presolve time = 1250s) ...
Presolve removed 226 rows and 1491 columns (presolve time = 1256s) ...
Presolve removed 226 rows and 1491 columns (presolve time = 1262s) ...
Presolve removed 226 rows and 1491 columns (presolve time = 1265s) ...
Presolve removed 226 rows and 1491 columns (presolve time = 1270s) ...
Presolve removed 226 rows and 1491 columns (presolve time = 1279s) ...
Presolve removed 226 rows and 1491 columns (presolve time = 1280s) ...
Presolve removed 226 rows and 1491 columns (presolve time = 1285s) ...
Presolve removed 226 rows and 1491 columns (presolve time = 1290s) ...
Presolve removed 226 rows and 1491 columns (presolve time = 1295s) ...
Presolve removed 226 rows and 1491 columns (presolve time = 1301s) ...
Presolve removed 226 rows and 1491 columns (presolve time = 1305s) ...
Presolve removed 226 rows and 1491 columns (presolve time = 1311s) ...
Presolve removed 226 rows and 1491 columns (presolve time = 1315s) ...
Presolve removed 226 rows and 1491 columns (presolve time = 1320s) ...
Presolve removed 226 rows and 1491 columns (presolve time = 1325s) ...
Presolve removed 226 rows and 1491 columns (presolve time = 1330s) ...
Presolve removed 226 rows and 1491 columns (presolve time = 1336s) ...
Presolve removed 226 rows and 1491 columns (presolve time = 1340s) ...
Presolve removed 226 rows and 1491 columns (presolve time = 1345s) ...
Presolve removed 226 rows and 1491 columns (presolve time = 1351s) ...
Presolve removed 226 rows and 1491 columns (presolve time = 1356s) ...
Presolve removed 226 rows and 1491 columns (presolve time = 1360s) ...
Presolve removed 226 rows and 1491 columns (presolve time = 1365s) ...
Presolve removed 226 rows and 1491 columns (presolve time = 1371s) ...
Presolve removed 226 rows and 1491 columns (presolve time = 1375s) ...
Presolve removed 226 rows and 1491 columns (presolve time = 1381s) ...
Presolve removed 226 rows and 1491 columns (presolve time = 1386s) ...
Presolve removed 226 rows and 1491 columns (presolve time = 1390s) ...
Presolve removed 226 rows and 1491 columns (presolve time = 1395s) ...
Presolve removed 226 rows and 1491 columns (presolve time = 1400s) ...
Presolve removed 226 rows and 1491 columns (presolve time = 1406s) ...
Presolve removed 226 rows and 1491 columns (presolve time = 1410s) ...
Presolve removed 226 rows and 1491 columns (presolve time = 1418s) ...
Presolve removed 226 rows and 1491 columns (presolve time = 1423s) ...
Presolve removed 226 rows and 1491 columns (presolve time = 1425s) ...
Presolve removed 226 rows and 1491 columns (presolve time = 1434s) ...
Presolve removed 226 rows and 1491 columns (presolve time = 1435s) ...
Presolve removed 226 rows and 1491 columns (presolve time = 1440s) ...
Presolve removed 226 rows and 1491 columns (presolve time = 1445s) ...
Presolve removed 226 rows and 1491 columns (presolve time = 1450s) ...
Presolve removed 226 rows and 1491 columns (presolve time = 1455s) ...
Presolve removed 226 rows and 1491 columns (presolve time = 1464s) ...
Presolve removed 226 rows and 1491 columns (presolve time = 1466s) ...
Presolve removed 226 rows and 1491 columns (presolve time = 1470s) ...
Presolve removed 226 rows and 1491 columns (presolve time = 1476s) ...
Presolve removed 226 rows and 1491 columns (presolve time = 1481s) ...
Presolve removed 226 rows and 1491 columns (presolve time = 1486s) ...
Presolve removed 226 rows and 1491 columns (presolve time = 1490s) ...
Presolve removed 226 rows and 1491 columns (presolve time = 1495s) ...
Presolve removed 226 rows and 1491 columns (presolve time = 1501s) ...
Presolve removed 226 rows and 1491 columns (presolve time = 1506s) ...
Presolve removed 226 rows and 1491 columns (presolve time = 1511s) ...
Presolve removed 226 rows and 1491 columns (presolve time = 1515s) ...
Presolve removed 226 rows and 1491 columns (presolve time = 1520s) ...
Presolve removed 226 rows and 1491 columns (presolve time = 1525s) ...
Presolve removed 226 rows and 1491 columns (presolve time = 1530s) ...
Presolve removed 226 rows and 1491 columns (presolve time = 1535s) ...
Presolve removed 226 rows and 1491 columns (presolve time = 1540s) ...
Presolve removed 226 rows and 1491 columns (presolve time = 1548s) ...
Presolve removed 226 rows and 1491 columns (presolve time = 1551s) ...
Presolve removed 226 rows and 1491 columns (presolve time = 1558s) ...
Presolve removed 226 rows and 1491 columns (presolve time = 1561s) ...
Presolve removed 226 rows and 1491 columns (presolve time = 1566s) ...
Presolve removed 226 rows and 1491 columns (presolve time = 1570s) ...
Presolve removed 226 rows and 1491 columns (presolve time = 1575s) ...
Presolve removed 226 rows and 1491 columns (presolve time = 1580s) ...
Presolve removed 226 rows and 1491 columns (presolve time = 1586s) ...
Presolve removed 226 rows and 1491 columns (presolve time = 1590s) ...
Presolve removed 226 rows and 1491 columns (presolve time = 1595s) ...
Presolve removed 226 rows and 1491 columns (presolve time = 1601s) ...
Presolve removed 226 rows and 1491 columns (presolve time = 1608s) ...
Presolve removed 226 rows and 1491 columns (presolve time = 1610s) ...
Presolve removed 226 rows and 1491 columns (presolve time = 1616s) ...
Presolve removed 226 rows and 1491 columns (presolve time = 1621s) ...
Presolve removed 226 rows and 1491 columns (presolve time = 1626s) ...
Presolve removed 226 rows and 1491 columns (presolve time = 1632s) ...
Presolve removed 226 rows and 1491 columns (presolve time = 1635s) ...
Presolve removed 226 rows and 1491 columns (presolve time = 1640s) ...
Presolve removed 226 rows and 1491 columns (presolve time = 1645s) ...
Presolve removed 226 rows and 1491 columns (presolve time = 1651s) ...
Presolve removed 226 rows and 1491 columns (presolve time = 1656s) ...
Presolve removed 226 rows and 1491 columns (presolve time = 1660s) ...
Presolve removed 226 rows and 1491 columns (presolve time = 1665s) ...
Presolve removed 226 rows and 1491 columns (presolve time = 1682s) ...
Presolve removed 226 rows and 1491 columns
Presolve time: 1681.56s
Presolved: 9576 rows, 294245 columns, 233486280 nonzeros
Variable types: 0 continuous, 294245 integer (294245 binary)

Root simplex log...

Iteration    Objective       Primal Inf.    Dual Inf.      Time
       0    1.1032776e+08   5.822494e+07   0.000000e+00   1707s
    1038    1.7938716e+05   3.139662e+05   0.000000e+00   1711s
    1854    1.4443371e+05   1.103483e+06   0.000000e+00   1716s
    2418    1.3402700e+05   1.053170e+06   0.000000e+00   1721s
    2975    1.2895896e+05   1.592216e+06   0.000000e+00   1726s
    3355    1.2660763e+05   2.280002e+06   0.000000e+00   1730s
    3913    1.2312961e+05   5.657674e+05   0.000000e+00   1736s
    4279    1.2164455e+05   2.353845e+04   0.000000e+00   1741s
    4668    1.2034728e+05   1.292691e+05   0.000000e+00   1746s
    5032    1.1841764e+05   8.961237e+04   0.000000e+00   1751s
    5390    1.1323031e+05   1.027938e+06   0.000000e+00   1756s
    5740    1.0444737e+05   4.439019e+06   0.000000e+00   1761s
    6099    9.8022023e+04   6.393898e+05   0.000000e+00   1766s
    6478    9.0487447e+04   2.213578e+05   0.000000e+00   1770s
    7018    7.8425344e+04   2.577054e+05   0.000000e+00   1776s
    7381    7.4466642e+04   1.126333e+05   0.000000e+00   1781s
    7933    7.0972392e+04   7.987602e+05   0.000000e+00   1787s
    8309    6.8984154e+04   1.051672e+06   0.000000e+00   1791s
    8691    6.7130382e+04   1.446490e+06   0.000000e+00   1796s

Root relaxation: time limit, 9051 iterations, 104.73 seconds

    Nodes    |    Current Node    |     Objective Bounds      |     Work
 Expl Unexpl |  Obj  Depth IntInf | Incumbent    BestBd   Gap | It/Node Time

     0     0          -    0      10721.0000 4.0668e+08      -     - 1800s

Explored 0 nodes (9051 simplex iterations) in 1801.04 seconds
Thread count was 8 (of 8 available processors)

Solution count 1: 10721 

Time limit reached
Best objective 1.072100000000e+04, best bound 4.066790170000e+08, gap 3793193.6946%
Obj: 10721
